db/data/79049587130941611122832252592265219631.z3.out
sat
-------------------
662.101571001
